p cnf 963 2472
51 -696 -1 0
-51 696 0
-51 1 0
52 -51 -697 0
-52 51 0
-52 697 0
53 -5 -4 0
-53 5 0
-53 4 0
54 -53 -696 0
-54 53 0
-54 696 0
55 -698 -699 0
-55 698 0
-55 699 0
56 -700 -6 0
-56 700 0
-56 6 0
57 -56 -8 0
-57 56 0
-57 8 0
58 -701 -55 0
-58 701 0
-58 55 0
59 -10 -9 0
-59 10 0
-59 9 0
60 -59 -702 0
-60 59 0
-60 702 0
61 -703 -58 0
-61 703 0
-61 58 0
62 -704 -705 0
-62 704 0
-62 705 0
63 -62 -14 0
-63 62 0
-63 14 0
64 -706 -61 0
-64 706 0
-64 61 0
65 -707 -708 0
-65 707 0
-65 708 0
66 -65 -709 0
-66 65 0
-66 709 0
67 -710 -64 0
-67 710 0
-67 64 0
68 -18 -2 0
-68 18 0
-68 2 0
69 -68 -11 0
-69 68 0
-69 11 0
70 -711 -67 0
-70 711 0
-70 67 0
71 -19 -707 0
-71 19 0
-71 707 0
72 -71 -11 0
-72 71 0
-72 11 0
73 -712 -70 0
-73 712 0
-73 70 0
74 -20 -705 0
-74 20 0
-74 705 0
75 -74 -713 0
-75 74 0
-75 713 0
76 -714 -73 0
-76 714 0
-76 73 0
77 -23 -22 0
-77 23 0
-77 22 0
78 -77 -715 0
-78 77 0
-78 715 0
79 -716 -76 0
-79 716 0
-79 76 0
80 -25 -24 0
-80 25 0
-80 24 0
81 -80 -717 0
-81 80 0
-81 717 0
82 -718 -79 0
-82 718 0
-82 79 0
83 -25 -20 0
-83 25 0
-83 20 0
84 -83 -17 0
-84 83 0
-84 17 0
85 -719 -82 0
-85 719 0
-85 82 0
86 -27 -720 0
-86 27 0
-86 720 0
87 -86 -696 0
-87 86 0
-87 696 0
88 -721 -85 0
-88 721 0
-88 85 0
89 -722 -12 0
-89 722 0
-89 12 0
90 -89 -723 0
-90 89 0
-90 723 0
91 -724 -88 0
-91 724 0
-91 88 0
92 -696 -725 0
-92 696 0
-92 725 0
93 -92 -17 0
-93 92 0
-93 17 0
94 -726 -91 0
-94 726 0
-94 91 0
95 -727 -6 0
-95 727 0
-95 6 0
96 -95 -728 0
-96 95 0
-96 728 0
97 -729 -94 0
-97 729 0
-97 94 0
98 -730 -16 0
-98 730 0
-98 16 0
99 -98 -731 0
-99 98 0
-99 731 0
100 -732 -97 0
-100 732 0
-100 97 0
101 -31 -733 0
-101 31 0
-101 733 0
102 -101 -697 0
-102 101 0
-102 697 0
103 -734 -100 0
-103 734 0
-103 100 0
104 -735 -23 0
-104 735 0
-104 23 0
105 -104 -736 0
-105 104 0
-105 736 0
106 -737 -103 0
-106 737 0
-106 103 0
107 -35 -707 0
-107 35 0
-107 707 0
108 -107 -36 0
-108 107 0
-108 36 0
109 -738 -106 0
-109 738 0
-109 106 0
110 -739 -30 0
-110 739 0
-110 30 0
111 -110 -38 0
-111 110 0
-111 38 0
112 -740 -109 0
-112 740 0
-112 109 0
113 -39 -705 0
-113 39 0
-113 705 0
114 -113 -727 0
-114 113 0
-114 727 0
115 -741 -112 0
-115 741 0
-115 112 0
116 -15 -704 0
-116 15 0
-116 704 0
117 -116 -2 0
-117 116 0
-117 2 0
118 -742 -115 0
-118 742 0
-118 115 0
119 -30 -700 0
-119 30 0
-119 700 0
120 -119 -21 0
-120 119 0
-120 21 0
121 -743 -118 0
-121 743 0
-121 118 0
122 -744 -704 0
-122 744 0
-122 704 0
123 -122 -745 0
-123 122 0
-123 745 0
124 -746 -121 0
-124 746 0
-124 121 0
125 -747 -736 0
-125 747 0
-125 736 0
126 -125 -27 0
-126 125 0
-126 27 0
127 -748 -124 0
-127 748 0
-127 124 0
128 -40 -4 0
-128 40 0
-128 4 0
129 -128 -709 0
-129 128 0
-129 709 0
130 -749 -127 0
-130 749 0
-130 127 0
131 -35 -13 0
-131 35 0
-131 13 0
132 -131 -5 0
-132 131 0
-132 5 0
133 -750 -130 0
-133 750 0
-133 130 0
134 -751 -6 0
-134 751 0
-134 6 0
135 -134 -717 0
-135 134 0
-135 717 0
136 -752 -133 0
-136 752 0
-136 133 0
137 -41 -31 0
-137 41 0
-137 31 0
138 -137 -19 0
-138 137 0
-138 19 0
139 -753 -136 0
-139 753 0
-139 136 0
140 -713 -10 0
-140 713 0
-140 10 0
141 -140 -754 0
-141 140 0
-141 754 0
142 -755 -139 0
-142 755 0
-142 139 0
143 -756 -18 0
-143 756 0
-143 18 0
144 -143 -11 0
-144 143 0
-144 11 0
145 -757 -142 0
-145 757 0
-145 142 0
146 -758 -723 0
-146 758 0
-146 723 0
147 -146 -728 0
-147 146 0
-147 728 0
148 -759 -145 0
-148 759 0
-148 145 0
149 -722 -707 0
-149 722 0
-149 707 0
150 -149 -720 0
-150 149 0
-150 720 0
151 -760 -148 0
-151 760 0
-151 148 0
152 -43 -6 0
-152 43 0
-152 6 0
153 -152 -761 0
-153 152 0
-153 761 0
154 -762 -151 0
-154 762 0
-154 151 0
155 -744 -8 0
-155 744 0
-155 8 0
156 -155 -27 0
-156 155 0
-156 27 0
157 -763 -154 0
-157 763 0
-157 154 0
158 -764 -765 0
-158 764 0
-158 765 0
159 -158 -3 0
-159 158 0
-159 3 0
160 -766 -157 0
-160 766 0
-160 157 0
161 -37 -32 0
-161 37 0
-161 32 0
162 -161 -696 0
-162 161 0
-162 696 0
163 -767 -160 0
-163 767 0
-163 160 0
164 -768 -715 0
-164 768 0
-164 715 0
165 -164 -709 0
-165 164 0
-165 709 0
166 -769 -163 0
-166 769 0
-166 163 0
167 -41 -770 0
-167 41 0
-167 770 0
168 -167 -754 0
-168 167 0
-168 754 0
169 -771 -166 0
-169 771 0
-169 166 0
170 -43 -720 0
-170 43 0
-170 720 0
171 -170 -11 0
-171 170 0
-171 11 0
172 -772 -169 0
-172 772 0
-172 169 0
173 -46 -8 0
-173 46 0
-173 8 0
174 -173 -9 0
-174 173 0
-174 9 0
175 -773 -172 0
-175 773 0
-175 172 0
176 -16 -8 0
-176 16 0
-176 8 0
177 -176 -3 0
-177 176 0
-177 3 0
178 -774 -175 0
-178 774 0
-178 175 0
179 -727 -775 0
-179 727 0
-179 775 0
180 -179 -2 0
-180 179 0
-180 2 0
181 -776 -178 0
-181 776 0
-181 178 0
182 -731 -10 0
-182 731 0
-182 10 0
183 -182 -2 0
-183 182 0
-183 2 0
184 -777 -181 0
-184 777 0
-184 181 0
185 -747 -7 0
-185 747 0
-185 7 0
186 -185 -10 0
-186 185 0
-186 10 0
187 -778 -184 0
-187 778 0
-187 184 0
188 -730 -720 0
-188 730 0
-188 720 0
189 -188 -744 0
-189 188 0
-189 744 0
190 -779 -187 0
-190 779 0
-190 187 0
191 -751 -12 0
-191 751 0
-191 12 0
192 -191 -761 0
-192 191 0
-192 761 0
193 -780 -190 0
-193 780 0
-193 190 0
194 -46 -4 0
-194 46 0
-194 4 0
195 -194 -39 0
-195 194 0
-195 39 0
196 -781 -193 0
-196 781 0
-196 193 0
197 -37 -770 0
-197 37 0
-197 770 0
198 -197 -728 0
-198 197 0
-198 728 0
199 -782 -196 0
-199 782 0
-199 196 0
200 -46 -708 0
-200 46 0
-200 708 0
201 -200 -768 0
-201 200 0
-201 768 0
202 -783 -199 0
-202 783 0
-202 199 0
203 -45 -19 0
-203 45 0
-203 19 0
204 -203 -784 0
-204 203 0
-204 784 0
205 -785 -202 0
-205 785 0
-205 202 0
206 -784 -29 0
-206 784 0
-206 29 0
207 -206 -702 0
-207 206 0
-207 702 0
208 -786 -205 0
-208 786 0
-208 205 0
209 -787 -707 0
-209 787 0
-209 707 0
210 -209 -705 0
-210 209 0
-210 705 0
211 -788 -208 0
-211 788 0
-211 208 0
212 -35 -4 0
-212 35 0
-212 4 0
213 -212 -775 0
-213 212 0
-213 775 0
214 -789 -211 0
-214 789 0
-214 211 0
215 -29 -707 0
-215 29 0
-215 707 0
216 -215 -31 0
-216 215 0
-216 31 0
217 -790 -214 0
-217 790 0
-217 214 0
218 -770 -15 0
-218 770 0
-218 15 0
219 -218 -775 0
-219 218 0
-219 775 0
220 -791 -217 0
-220 791 0
-220 217 0
221 -30 -4 0
-221 30 0
-221 4 0
222 -221 -745 0
-222 221 0
-222 745 0
223 -792 -220 0
-223 792 0
-223 220 0
224 -793 -739 0
-224 793 0
-224 739 0
225 -224 -794 0
-225 224 0
-225 794 0
226 -795 -223 0
-226 795 0
-226 223 0
227 -730 -6 0
-227 730 0
-227 6 0
228 -227 -713 0
-228 227 0
-228 713 0
229 -796 -226 0
-229 796 0
-229 226 0
230 -42 -700 0
-230 42 0
-230 700 0
231 -230 -48 0
-231 230 0
-231 48 0
232 -797 -229 0
-232 797 0
-232 229 0
233 -764 -42 0
-233 764 0
-233 42 0
234 -233 -38 0
-234 233 0
-234 38 0
235 -798 -232 0
-235 798 0
-235 232 0
236 -34 -6 0
-236 34 0
-236 6 0
237 -236 -794 0
-237 236 0
-237 794 0
238 -799 -235 0
-238 799 0
-238 235 0
239 -705 -7 0
-239 705 0
-239 7 0
240 -239 -704 0
-240 239 0
-240 704 0
241 -800 -238 0
-241 800 0
-241 238 0
242 -723 -801 0
-242 723 0
-242 801 0
243 -242 -744 0
-243 242 0
-243 744 0
244 -802 -241 0
-244 802 0
-244 241 0
245 -104 -803 0
-245 104 0
-245 803 0
246 -804 -244 0
-246 804 0
-246 244 0
247 -48 -40 0
-247 48 0
-247 40 0
248 -247 -23 0
-248 247 0
-248 23 0
249 -805 -246 0
-249 805 0
-249 246 0
250 -793 -696 0
-250 793 0
-250 696 0
251 -250 -11 0
-251 250 0
-251 11 0
252 -806 -249 0
-252 806 0
-252 249 0
253 -807 -16 0
-253 807 0
-253 16 0
254 -253 -794 0
-254 253 0
-254 794 0
255 -808 -252 0
-255 808 0
-255 252 0
256 -34 -809 0
-256 34 0
-256 809 0
257 -256 -758 0
-257 256 0
-257 758 0
258 -810 -255 0
-258 810 0
-258 255 0
259 -727 -13 0
-259 727 0
-259 13 0
260 -259 -731 0
-260 259 0
-260 731 0
261 -811 -258 0
-261 811 0
-261 258 0
262 -43 -735 0
-262 43 0
-262 735 0
263 -262 -723 0
-263 262 0
-263 723 0
264 -812 -261 0
-264 812 0
-264 261 0
265 -733 -761 0
-265 733 0
-265 761 0
266 -265 -736 0
-266 265 0
-266 736 0
267 -813 -264 0
-267 813 0
-267 264 0
268 -28 -744 0
-268 28 0
-268 744 0
269 -268 -26 0
-269 268 0
-269 26 0
270 -814 -267 0
-270 814 0
-270 267 0
271 -13 -801 0
-271 13 0
-271 801 0
272 -271 -720 0
-272 271 0
-272 720 0
273 -815 -270 0
-273 815 0
-273 270 0
274 -728 -705 0
-274 728 0
-274 705 0
275 -274 -25 0
-275 274 0
-275 25 0
276 -816 -273 0
-276 816 0
-276 273 0
277 -21 -705 0
-277 21 0
-277 705 0
278 -277 -768 0
-278 277 0
-278 768 0
279 -817 -276 0
-279 817 0
-279 276 0
280 -713 -13 0
-280 713 0
-280 13 0
281 -280 -736 0
-281 280 0
-281 736 0
282 -818 -279 0
-282 818 0
-282 279 0
283 -29 -25 0
-283 29 0
-283 25 0
284 -283 -697 0
-284 283 0
-284 697 0
285 -819 -282 0
-285 819 0
-285 282 0
286 -820 -696 0
-286 820 0
-286 696 0
287 -286 -784 0
-287 286 0
-287 784 0
288 -821 -285 0
-288 821 0
-288 285 0
289 -793 -807 0
-289 793 0
-289 807 0
290 -289 -761 0
-290 289 0
-290 761 0
291 -822 -288 0
-291 822 0
-291 288 0
292 -731 -720 0
-292 731 0
-292 720 0
293 -292 -715 0
-293 292 0
-293 715 0
294 -823 -291 0
-294 823 0
-294 291 0
295 -46 -713 0
-295 46 0
-295 713 0
296 -295 -731 0
-296 295 0
-296 731 0
297 -824 -294 0
-297 824 0
-297 294 0
298 -728 -707 0
-298 728 0
-298 707 0
299 -298 -11 0
-299 298 0
-299 11 0
300 -825 -297 0
-300 825 0
-300 297 0
301 -765 -29 0
-301 765 0
-301 29 0
302 -301 -8 0
-302 301 0
-302 8 0
303 -826 -300 0
-303 826 0
-303 300 0
304 -49 -775 0
-304 49 0
-304 775 0
305 -304 -19 0
-305 304 0
-305 19 0
306 -827 -303 0
-306 827 0
-306 303 0
307 -45 -704 0
-307 45 0
-307 704 0
308 -307 -2 0
-308 307 0
-308 2 0
309 -828 -306 0
-309 828 0
-309 306 0
310 -30 -717 0
-310 30 0
-310 717 0
311 -310 -17 0
-311 310 0
-311 17 0
312 -829 -309 0
-312 829 0
-312 309 0
313 -756 -770 0
-313 756 0
-313 770 0
314 -313 -5 0
-314 313 0
-314 5 0
315 -830 -312 0
-315 830 0
-315 312 0
316 -16 -700 0
-316 16 0
-316 700 0
317 -316 -25 0
-317 316 0
-317 25 0
318 -831 -315 0
-318 831 0
-318 315 0
319 -40 -38 0
-319 40 0
-319 38 0
320 -319 -11 0
-320 319 0
-320 11 0
321 -832 -318 0
-321 832 0
-321 318 0
322 -46 -36 0
-322 46 0
-322 36 0
323 -322 -18 0
-323 322 0
-323 18 0
324 -833 -321 0
-324 833 0
-324 321 0
325 -253 -50 0
-325 253 0
-325 50 0
326 -834 -324 0
-326 834 0
-326 324 0
327 -41 -809 0
-327 41 0
-327 809 0
328 -327 -18 0
-328 327 0
-328 18 0
329 -835 -326 0
-329 835 0
-329 326 0
330 -19 -725 0
-330 19 0
-330 725 0
331 -330 -2 0
-331 330 0
-331 2 0
332 -836 -329 0
-332 836 0
-332 329 0
333 -5 -1 0
-333 5 0
-333 1 0
334 -333 -837 0
-334 333 0
-334 837 0
335 -838 -332 0
-335 838 0
-335 332 0
336 -820 -1 0
-336 820 0
-336 1 0
337 -336 -17 0
-337 336 0
-337 17 0
338 -839 -335 0
-338 839 0
-338 335 0
339 -161 -26 0
-339 161 0
-339 26 0
340 -840 -338 0
-340 840 0
-340 338 0
341 -28 -768 0
-341 28 0
-341 768 0
342 -341 -19 0
-342 341 0
-342 19 0
343 -841 -340 0
-343 841 0
-343 340 0
344 -765 -14 0
-344 765 0
-344 14 0
345 -344 -5 0
-345 344 0
-345 5 0
346 -842 -343 0
-346 842 0
-346 343 0
347 -713 -14 0
-347 713 0
-347 14 0
348 -347 -33 0
-348 347 0
-348 33 0
349 -843 -346 0
-349 843 0
-349 346 0
350 -844 -36 0
-350 844 0
-350 36 0
351 -350 -10 0
-351 350 0
-351 10 0
352 -845 -349 0
-352 845 0
-352 349 0
353 -770 -720 0
-353 770 0
-353 720 0
354 -353 -723 0
-354 353 0
-354 723 0
355 -846 -352 0
-355 846 0
-355 352 0
356 -35 -7 0
-356 35 0
-356 7 0
357 -356 -10 0
-357 356 0
-357 10 0
358 -847 -355 0
-358 847 0
-358 355 0
359 -739 -16 0
-359 739 0
-359 16 0
360 -359 -713 0
-360 359 0
-360 713 0
361 -848 -358 0
-361 848 0
-361 358 0
362 -38 -13 0
-362 38 0
-362 13 0
363 -362 -31 0
-363 362 0
-363 31 0
364 -849 -361 0
-364 849 0
-364 361 0
365 -227 -696 0
-365 227 0
-365 696 0
366 -850 -364 0
-366 850 0
-366 364 0
367 -22 -12 0
-367 22 0
-367 12 0
368 -367 -761 0
-368 367 0
-368 761 0
369 -851 -366 0
-369 851 0
-369 366 0
370 -733 -704 0
-370 733 0
-370 704 0
371 -370 -11 0
-371 370 0
-371 11 0
372 -852 -369 0
-372 852 0
-372 369 0
373 -25 -1 0
-373 25 0
-373 1 0
374 -373 -837 0
-374 373 0
-374 837 0
375 -853 -372 0
-375 853 0
-375 372 0
376 -735 -730 0
-376 735 0
-376 730 0
377 -376 -723 0
-377 376 0
-377 723 0
378 -854 -375 0
-378 854 0
-378 375 0
379 -33 -751 0
-379 33 0
-379 751 0
380 -379 -8 0
-380 379 0
-380 8 0
381 -855 -378 0
-381 855 0
-381 378 0
382 -29 -14 0
-382 29 0
-382 14 0
383 -382 -40 0
-383 382 0
-383 40 0
384 -856 -381 0
-384 856 0
-384 381 0
385 -784 -764 0
-385 784 0
-385 764 0
386 -385 -709 0
-386 385 0
-386 709 0
387 -857 -384 0
-387 857 0
-387 384 0
388 -756 -700 0
-388 756 0
-388 700 0
389 -388 -705 0
-389 388 0
-389 705 0
390 -858 -387 0
-390 858 0
-390 387 0
391 -31 -10 0
-391 31 0
-391 10 0
392 -391 -11 0
-392 391 0
-392 11 0
393 -859 -390 0
-393 859 0
-393 390 0
394 -756 -723 0
-394 756 0
-394 723 0
395 -394 -754 0
-395 394 0
-395 754 0
396 -860 -393 0
-396 860 0
-396 393 0
397 -37 -12 0
-397 37 0
-397 12 0
398 -397 -717 0
-398 397 0
-398 717 0
399 -861 -396 0
-399 861 0
-399 396 0
400 -21 -7 0
-400 21 0
-400 7 0
401 -400 -33 0
-401 400 0
-401 33 0
402 -862 -399 0
-402 862 0
-402 399 0
403 -747 -744 0
-403 747 0
-403 744 0
404 -403 -761 0
-404 403 0
-404 761 0
405 -863 -402 0
-405 863 0
-405 402 0
406 -44 -735 0
-406 44 0
-406 735 0
407 -406 -10 0
-407 406 0
-407 10 0
408 -864 -405 0
-408 864 0
-408 405 0
409 -756 -1 0
-409 756 0
-409 1 0
410 -409 -807 0
-410 409 0
-410 807 0
411 -865 -408 0
-411 865 0
-411 408 0
412 -735 -727 0
-412 735 0
-412 727 0
413 -412 -5 0
-413 412 0
-413 5 0
414 -866 -411 0
-414 866 0
-414 411 0
415 -19 -736 0
-415 19 0
-415 736 0
416 -415 -11 0
-416 415 0
-416 11 0
417 -867 -414 0
-417 867 0
-417 414 0
418 -33 -727 0
-418 33 0
-418 727 0
419 -418 -715 0
-419 418 0
-419 715 0
420 -868 -417 0
-420 868 0
-420 417 0
421 -233 -27 0
-421 233 0
-421 27 0
422 -869 -420 0
-422 869 0
-422 420 0
423 -727 -26 0
-423 727 0
-423 26 0
424 -423 -784 0
-424 423 0
-424 784 0
425 -870 -422 0
-425 870 0
-425 422 0
426 -754 -12 0
-426 754 0
-426 12 0
427 -426 -17 0
-427 426 0
-427 17 0
428 -871 -425 0
-428 871 0
-428 425 0
429 -56 -21 0
-429 56 0
-429 21 0
430 -872 -428 0
-430 872 0
-430 428 0
431 -820 -6 0
-431 820 0
-431 6 0
432 -431 -745 0
-432 431 0
-432 745 0
433 -873 -430 0
-433 873 0
-433 430 0
434 -704 -725 0
-434 704 0
-434 725 0
435 -434 -45 0
-435 434 0
-435 45 0
436 -874 -433 0
-436 874 0
-436 433 0
437 -793 -751 0
-437 793 0
-437 751 0
438 -437 -8 0
-438 437 0
-438 8 0
439 -875 -436 0
-439 875 0
-439 436 0
440 -723 -3 0
-440 723 0
-440 3 0
441 -440 -47 0
-441 440 0
-441 47 0
442 -876 -439 0
-442 876 0
-442 439 0
443 -728 -696 0
-443 728 0
-443 696 0
444 -443 -784 0
-444 443 0
-444 784 0
445 -877 -442 0
-445 877 0
-445 442 0
446 -27 -768 0
-446 27 0
-446 768 0
447 -446 -26 0
-447 446 0
-447 26 0
448 -878 -445 0
-448 878 0
-448 445 0
449 -49 -730 0
-449 49 0
-449 730 0
450 -449 -14 0
-450 449 0
-450 14 0
451 -879 -448 0
-451 879 0
-451 448 0
452 -36 -725 0
-452 36 0
-452 725 0
453 -452 -47 0
-453 452 0
-453 47 0
454 -880 -451 0
-454 880 0
-454 451 0
455 -28 -705 0
-455 28 0
-455 705 0
456 -455 -2 0
-456 455 0
-456 2 0
457 -881 -454 0
-457 881 0
-457 454 0
458 -45 -1 0
-458 45 0
-458 1 0
459 -458 -47 0
-459 458 0
-459 47 0
460 -882 -457 0
-460 882 0
-460 457 0
461 -29 -13 0
-461 29 0
-461 13 0
462 -461 -9 0
-462 461 0
-462 9 0
463 -883 -460 0
-463 883 0
-463 460 0
464 -809 -725 0
-464 809 0
-464 725 0
465 -464 -709 0
-465 464 0
-465 709 0
466 -884 -463 0
-466 884 0
-466 463 0
467 -787 -739 0
-467 787 0
-467 739 0
468 -467 -45 0
-468 467 0
-468 45 0
469 -885 -466 0
-469 885 0
-469 466 0
470 -10 -761 0
-470 10 0
-470 761 0
471 -470 -697 0
-471 470 0
-471 697 0
472 -886 -469 0
-472 886 0
-472 469 0
473 -23 -19 0
-473 23 0
-473 19 0
474 -473 -26 0
-474 473 0
-474 26 0
475 -887 -472 0
-475 887 0
-475 472 0
476 -723 -807 0
-476 723 0
-476 807 0
477 -476 -26 0
-477 476 0
-477 26 0
478 -888 -475 0
-478 888 0
-478 475 0
479 -31 -29 0
-479 31 0
-479 29 0
480 -479 -27 0
-480 479 0
-480 27 0
481 -889 -478 0
-481 889 0
-481 478 0
482 -844 -19 0
-482 844 0
-482 19 0
483 -482 -696 0
-483 482 0
-483 696 0
484 -890 -481 0
-484 890 0
-484 481 0
485 -756 -37 0
-485 756 0
-485 37 0
486 -485 -20 0
-486 485 0
-486 20 0
487 -891 -484 0
-487 891 0
-487 484 0
488 -31 -705 0
-488 31 0
-488 705 0
489 -488 -25 0
-489 488 0
-489 25 0
490 -892 -487 0
-490 892 0
-490 487 0
491 -22 -809 0
-491 22 0
-491 809 0
492 -491 -10 0
-492 491 0
-492 10 0
493 -893 -490 0
-493 893 0
-493 490 0
494 -46 -6 0
-494 46 0
-494 6 0
495 -494 -844 0
-495 494 0
-495 844 0
496 -894 -493 0
-496 894 0
-496 493 0
497 -29 -1 0
-497 29 0
-497 1 0
498 -497 -17 0
-498 497 0
-498 17 0
499 -895 -496 0
-499 895 0
-499 496 0
500 -807 -801 0
-500 807 0
-500 801 0
501 -500 -40 0
-501 500 0
-501 40 0
502 -896 -499 0
-502 896 0
-502 499 0
503 -793 -704 0
-503 793 0
-503 704 0
504 -503 -768 0
-504 503 0
-504 768 0
505 -897 -502 0
-505 897 0
-505 502 0
506 -22 -8 0
-506 22 0
-506 8 0
507 -506 -26 0
-507 506 0
-507 26 0
508 -898 -505 0
-508 898 0
-508 505 0
509 -49 -794 0
-509 49 0
-509 794 0
510 -509 -709 0
-510 509 0
-510 709 0
511 -899 -508 0
-511 899 0
-511 508 0
512 -42 -15 0
-512 42 0
-512 15 0
513 -512 -38 0
-513 512 0
-513 38 0
514 -900 -511 0
-514 900 0
-514 511 0
515 -747 -6 0
-515 747 0
-515 6 0
516 -515 -764 0
-516 515 0
-516 764 0
517 -901 -514 0
-517 901 0
-517 514 0
518 -41 -14 0
-518 41 0
-518 14 0
519 -518 -775 0
-519 518 0
-519 775 0
520 -902 -517 0
-520 902 0
-520 517 0
521 -727 -809 0
-521 727 0
-521 809 0
522 -521 -770 0
-522 521 0
-522 770 0
523 -903 -520 0
-523 903 0
-523 520 0
524 -787 -35 0
-524 787 0
-524 35 0
525 -524 -2 0
-525 524 0
-525 2 0
526 -904 -523 0
-526 904 0
-526 523 0
527 -707 -809 0
-527 707 0
-527 809 0
528 -527 -725 0
-528 527 0
-528 725 0
529 -905 -526 0
-529 905 0
-529 526 0
530 -128 -10 0
-530 128 0
-530 10 0
531 -906 -529 0
-531 906 0
-531 529 0
532 -41 -15 0
-532 41 0
-532 15 0
533 -532 -720 0
-533 532 0
-533 720 0
534 -907 -531 0
-534 907 0
-534 531 0
535 -908 -708 0
-535 908 0
-535 708 0
536 -535 -715 0
-536 535 0
-536 715 0
537 -909 -534 0
-537 909 0
-537 534 0
538 -28 -725 0
-538 28 0
-538 725 0
539 -538 -13 0
-539 538 0
-539 13 0
540 -910 -537 0
-540 910 0
-540 537 0
541 -756 -793 0
-541 756 0
-541 793 0
542 -541 -696 0
-542 541 0
-542 696 0
543 -911 -540 0
-543 911 0
-543 540 0
544 -39 -733 0
-544 39 0
-544 733 0
545 -544 -775 0
-545 544 0
-545 775 0
546 -912 -543 0
-546 912 0
-546 543 0
547 -25 -8 0
-547 25 0
-547 8 0
548 -547 -26 0
-548 547 0
-548 26 0
549 -913 -546 0
-549 913 0
-549 546 0
550 -277 -29 0
-550 277 0
-550 29 0
551 -914 -549 0
-551 914 0
-551 549 0
552 -708 -725 0
-552 708 0
-552 725 0
553 -552 -745 0
-553 552 0
-553 745 0
554 -915 -551 0
-554 915 0
-554 551 0
555 -34 -801 0
-555 34 0
-555 801 0
556 -555 -5 0
-556 555 0
-556 5 0
557 -916 -554 0
-557 916 0
-557 554 0
558 -35 -708 0
-558 35 0
-558 708 0
559 -558 -33 0
-559 558 0
-559 33 0
560 -917 -557 0
-560 917 0
-560 557 0
561 -31 -713 0
-561 31 0
-561 713 0
562 -561 -17 0
-562 561 0
-562 17 0
563 -918 -560 0
-563 918 0
-563 560 0
564 -35 -15 0
-564 35 0
-564 15 0
565 -564 -758 0
-565 564 0
-565 758 0
566 -919 -563 0
-566 919 0
-566 563 0
567 -793 -700 0
-567 793 0
-567 700 0
568 -567 -33 0
-568 567 0
-568 33 0
569 -920 -566 0
-569 920 0
-569 566 0
570 -756 -6 0
-570 756 0
-570 6 0
571 -570 -27 0
-571 570 0
-571 27 0
572 -921 -569 0
-572 921 0
-572 569 0
573 -41 -730 0
-573 41 0
-573 730 0
574 -573 -8 0
-574 573 0
-574 8 0
575 -922 -572 0
-575 922 0
-575 572 0
576 -747 -15 0
-576 747 0
-576 15 0
577 -576 -26 0
-577 576 0
-577 26 0
578 -923 -575 0
-578 923 0
-578 575 0
579 -820 -731 0
-579 820 0
-579 731 0
580 -579 -794 0
-580 579 0
-580 794 0
581 -924 -578 0
-581 924 0
-581 578 0
582 -42 -809 0
-582 42 0
-582 809 0
583 -582 -32 0
-583 582 0
-583 32 0
584 -925 -581 0
-584 925 0
-584 581 0
585 -47 -26 0
-585 47 0
-585 26 0
586 -585 -702 0
-586 585 0
-586 702 0
587 -926 -584 0
-587 926 0
-587 584 0
588 -735 -16 0
-588 735 0
-588 16 0
589 -588 -803 0
-589 588 0
-589 803 0
590 -927 -587 0
-590 927 0
-590 587 0
591 -928 -4 0
-591 928 0
-591 4 0
592 -591 -908 0
-592 591 0
-592 908 0
593 -929 -590 0
-593 929 0
-593 590 0
594 -793 -803 0
-594 793 0
-594 803 0
595 -594 -717 0
-595 594 0
-595 717 0
596 -930 -593 0
-596 930 0
-596 593 0
597 -844 -41 0
-597 844 0
-597 41 0
598 -597 -36 0
-598 597 0
-598 36 0
599 -931 -596 0
-599 931 0
-599 596 0
600 -793 -8 0
-600 793 0
-600 8 0
601 -600 -50 0
-601 600 0
-601 50 0
602 -932 -599 0
-602 932 0
-602 599 0
603 -756 -747 0
-603 756 0
-603 747 0
604 -603 -13 0
-604 603 0
-604 13 0
605 -933 -602 0
-605 933 0
-605 602 0
606 -793 -20 0
-606 793 0
-606 20 0
607 -606 -713 0
-607 606 0
-607 713 0
608 -934 -605 0
-608 934 0
-608 605 0
609 -13 -696 0
-609 13 0
-609 696 0
610 -609 -784 0
-610 609 0
-610 784 0
611 -935 -608 0
-611 935 0
-611 608 0
612 -787 -21 0
-612 787 0
-612 21 0
613 -612 -9 0
-613 612 0
-613 9 0
614 -936 -611 0
-614 936 0
-614 611 0
615 -784 -730 0
-615 784 0
-615 730 0
616 -615 -11 0
-616 615 0
-616 11 0
617 -937 -614 0
-617 937 0
-617 614 0
618 -32 -720 0
-618 32 0
-618 720 0
619 -618 -33 0
-619 618 0
-619 33 0
620 -938 -617 0
-620 938 0
-620 617 0
621 -928 -733 0
-621 928 0
-621 733 0
622 -621 -47 0
-622 621 0
-622 47 0
623 -939 -620 0
-623 939 0
-623 620 0
624 -48 -803 0
-624 48 0
-624 803 0
625 -624 -5 0
-625 624 0
-625 5 0
626 -940 -623 0
-626 940 0
-626 623 0
627 -747 -12 0
-627 747 0
-627 12 0
628 -627 -730 0
-628 627 0
-628 730 0
629 -941 -626 0
-629 941 0
-629 626 0
630 -739 -770 0
-630 739 0
-630 770 0
631 -630 -744 0
-631 630 0
-631 744 0
632 -942 -629 0
-632 942 0
-632 629 0
633 -23 -7 0
-633 23 0
-633 7 0
634 -633 -754 0
-634 633 0
-634 754 0
635 -943 -632 0
-635 943 0
-635 632 0
636 -928 -758 0
-636 928 0
-636 758 0
637 -636 -14 0
-637 636 0
-637 14 0
638 -944 -635 0
-638 944 0
-638 635 0
639 -41 -751 0
-639 41 0
-639 751 0
640 -639 -702 0
-640 639 0
-640 702 0
641 -945 -638 0
-641 945 0
-641 638 0
642 -727 -4 0
-642 727 0
-642 4 0
643 -642 -13 0
-643 642 0
-643 13 0
644 -946 -641 0
-644 946 0
-644 641 0
645 -793 -21 0
-645 793 0
-645 21 0
646 -645 -49 0
-646 645 0
-646 49 0
647 -947 -644 0
-647 947 0
-647 644 0
648 -731 -4 0
-648 731 0
-648 4 0
649 -648 -11 0
-649 648 0
-649 11 0
650 -948 -647 0
-650 948 0
-650 647 0
651 -731 -24 0
-651 731 0
-651 24 0
652 -651 -702 0
-652 651 0
-652 702 0
653 -949 -650 0
-653 949 0
-653 650 0
654 -713 -708 0
-654 713 0
-654 708 0
655 -654 -47 0
-655 654 0
-655 47 0
656 -950 -653 0
-656 950 0
-656 653 0
657 -715 -13 0
-657 715 0
-657 13 0
658 -657 -26 0
-658 657 0
-658 26 0
659 -951 -656 0
-659 951 0
-659 656 0
660 -728 -5 0
-660 728 0
-660 5 0
661 -660 -717 0
-661 660 0
-661 717 0
662 -952 -659 0
-662 952 0
-662 659 0
663 -793 -720 0
-663 793 0
-663 720 0
664 -663 -26 0
-664 663 0
-664 26 0
665 -953 -662 0
-665 953 0
-665 662 0
666 -35 -730 0
-666 35 0
-666 730 0
667 -666 -47 0
-667 666 0
-667 47 0
668 -954 -665 0
-668 954 0
-668 665 0
669 -764 -33 0
-669 764 0
-669 33 0
670 -669 -745 0
-670 669 0
-670 745 0
671 -955 -668 0
-671 955 0
-671 668 0
672 -16 -6 0
-672 16 0
-672 6 0
673 -672 -33 0
-673 672 0
-673 33 0
674 -956 -671 0
-674 956 0
-674 671 0
675 -33 -775 0
-675 33 0
-675 775 0
676 -675 -10 0
-676 675 0
-676 10 0
677 -957 -674 0
-677 957 0
-677 674 0
678 -787 -803 0
-678 787 0
-678 803 0
679 -678 -25 0
-679 678 0
-679 25 0
680 -958 -677 0
-680 958 0
-680 677 0
681 -44 -9 0
-681 44 0
-681 9 0
682 -681 -11 0
-682 681 0
-682 11 0
683 -959 -680 0
-683 959 0
-683 680 0
684 -12 -1 0
-684 12 0
-684 1 0
685 -684 -30 0
-685 684 0
-685 30 0
686 -960 -683 0
-686 960 0
-686 683 0
687 -708 -801 0
-687 708 0
-687 801 0
688 -687 -22 0
-688 687 0
-688 22 0
689 -961 -686 0
-689 961 0
-689 686 0
690 -15 -720 0
-690 15 0
-690 720 0
691 -690 -9 0
-691 690 0
-691 9 0
692 -962 -689 0
-692 962 0
-692 689 0
693 -770 -22 0
-693 770 0
-693 22 0
694 -693 -17 0
-694 693 0
-694 17 0
695 -963 -692 0
-695 963 0
-695 692 0
-696 -2 0
696 2 0
-697 -3 0
697 3 0
-698 -54 0
698 54 0
-699 -52 0
699 52 0
-700 -7 0
700 7 0
-701 -57 0
701 57 0
-702 -11 0
702 11 0
-703 -60 0
703 60 0
-704 -13 0
704 13 0
-705 -12 0
705 12 0
-706 -63 0
706 63 0
-707 -16 0
707 16 0
-708 -15 0
708 15 0
-709 -17 0
709 17 0
-710 -66 0
710 66 0
-711 -69 0
711 69 0
-712 -72 0
712 72 0
-713 -21 0
713 21 0
-714 -75 0
714 75 0
-715 -19 0
715 19 0
-716 -78 0
716 78 0
-717 -26 0
717 26 0
-718 -81 0
718 81 0
-719 -84 0
719 84 0
-720 -14 0
720 14 0
-721 -87 0
721 87 0
-722 -28 0
722 28 0
-723 -29 0
723 29 0
-724 -90 0
724 90 0
-725 -1 0
725 1 0
-726 -93 0
726 93 0
-727 -30 0
727 30 0
-728 -31 0
728 31 0
-729 -96 0
729 96 0
-730 -32 0
730 32 0
-731 -33 0
731 33 0
-732 -99 0
732 99 0
-733 -22 0
733 22 0
-734 -102 0
734 102 0
-735 -34 0
735 34 0
-736 -10 0
736 10 0
-737 -105 0
737 105 0
-738 -108 0
738 108 0
-739 -37 0
739 37 0
-740 -111 0
740 111 0
-741 -114 0
741 114 0
-742 -117 0
742 117 0
-743 -120 0
743 120 0
-744 -23 0
744 23 0
-745 -5 0
745 5 0
-746 -123 0
746 123 0
-747 -35 0
747 35 0
-748 -126 0
748 126 0
-749 -129 0
749 129 0
-750 -132 0
750 132 0
-751 -20 0
751 20 0
-752 -135 0
752 135 0
-753 -138 0
753 138 0
-754 -27 0
754 27 0
-755 -141 0
755 141 0
-756 -42 0
756 42 0
-757 -144 0
757 144 0
-758 -41 0
758 41 0
-759 -147 0
759 147 0
-760 -150 0
760 150 0
-761 -8 0
761 8 0
-762 -153 0
762 153 0
-763 -156 0
763 156 0
-764 -45 0
764 45 0
-765 -44 0
765 44 0
-766 -159 0
766 159 0
-767 -162 0
767 162 0
-768 -25 0
768 25 0
-769 -165 0
769 165 0
-770 -36 0
770 36 0
-771 -168 0
771 168 0
-772 -171 0
772 171 0
-773 -174 0
773 174 0
-774 -177 0
774 177 0
-775 -9 0
775 9 0
-776 -180 0
776 180 0
-777 -183 0
777 183 0
-778 -186 0
778 186 0
-779 -189 0
779 189 0
-780 -192 0
780 192 0
-781 -195 0
781 195 0
-782 -198 0
782 198 0
-783 -201 0
783 201 0
-784 -47 0
784 47 0
-785 -204 0
785 204 0
-786 -207 0
786 207 0
-787 -43 0
787 43 0
-788 -210 0
788 210 0
-789 -213 0
789 213 0
-790 -216 0
790 216 0
-791 -219 0
791 219 0
-792 -222 0
792 222 0
-793 -39 0
793 39 0
-794 -18 0
794 18 0
-795 -225 0
795 225 0
-796 -228 0
796 228 0
-797 -231 0
797 231 0
-798 -234 0
798 234 0
-799 -237 0
799 237 0
-800 -240 0
800 240 0
-801 -6 0
801 6 0
-802 -243 0
802 243 0
-803 -38 0
803 38 0
-804 -245 0
804 245 0
-805 -248 0
805 248 0
-806 -251 0
806 251 0
-807 -24 0
807 24 0
-808 -254 0
808 254 0
-809 -4 0
809 4 0
-810 -257 0
810 257 0
-811 -260 0
811 260 0
-812 -263 0
812 263 0
-813 -266 0
813 266 0
-814 -269 0
814 269 0
-815 -272 0
815 272 0
-816 -275 0
816 275 0
-817 -278 0
817 278 0
-818 -281 0
818 281 0
-819 -284 0
819 284 0
-820 -49 0
820 49 0
-821 -287 0
821 287 0
-822 -290 0
822 290 0
-823 -293 0
823 293 0
-824 -296 0
824 296 0
-825 -299 0
825 299 0
-826 -302 0
826 302 0
-827 -305 0
827 305 0
-828 -308 0
828 308 0
-829 -311 0
829 311 0
-830 -314 0
830 314 0
-831 -317 0
831 317 0
-832 -320 0
832 320 0
-833 -323 0
833 323 0
-834 -325 0
834 325 0
-835 -328 0
835 328 0
-836 -331 0
836 331 0
-837 -50 0
837 50 0
-838 -334 0
838 334 0
-839 -337 0
839 337 0
-840 -339 0
840 339 0
-841 -342 0
841 342 0
-842 -345 0
842 345 0
-843 -348 0
843 348 0
-844 -48 0
844 48 0
-845 -351 0
845 351 0
-846 -354 0
846 354 0
-847 -357 0
847 357 0
-848 -360 0
848 360 0
-849 -363 0
849 363 0
-850 -365 0
850 365 0
-851 -368 0
851 368 0
-852 -371 0
852 371 0
-853 -374 0
853 374 0
-854 -377 0
854 377 0
-855 -380 0
855 380 0
-856 -383 0
856 383 0
-857 -386 0
857 386 0
-858 -389 0
858 389 0
-859 -392 0
859 392 0
-860 -395 0
860 395 0
-861 -398 0
861 398 0
-862 -401 0
862 401 0
-863 -404 0
863 404 0
-864 -407 0
864 407 0
-865 -410 0
865 410 0
-866 -413 0
866 413 0
-867 -416 0
867 416 0
-868 -419 0
868 419 0
-869 -421 0
869 421 0
-870 -424 0
870 424 0
-871 -427 0
871 427 0
-872 -429 0
872 429 0
-873 -432 0
873 432 0
-874 -435 0
874 435 0
-875 -438 0
875 438 0
-876 -441 0
876 441 0
-877 -444 0
877 444 0
-878 -447 0
878 447 0
-879 -450 0
879 450 0
-880 -453 0
880 453 0
-881 -456 0
881 456 0
-882 -459 0
882 459 0
-883 -462 0
883 462 0
-884 -465 0
884 465 0
-885 -468 0
885 468 0
-886 -471 0
886 471 0
-887 -474 0
887 474 0
-888 -477 0
888 477 0
-889 -480 0
889 480 0
-890 -483 0
890 483 0
-891 -486 0
891 486 0
-892 -489 0
892 489 0
-893 -492 0
893 492 0
-894 -495 0
894 495 0
-895 -498 0
895 498 0
-896 -501 0
896 501 0
-897 -504 0
897 504 0
-898 -507 0
898 507 0
-899 -510 0
899 510 0
-900 -513 0
900 513 0
-901 -516 0
901 516 0
-902 -519 0
902 519 0
-903 -522 0
903 522 0
-904 -525 0
904 525 0
-905 -528 0
905 528 0
-906 -530 0
906 530 0
-907 -533 0
907 533 0
-908 -40 0
908 40 0
-909 -536 0
909 536 0
-910 -539 0
910 539 0
-911 -542 0
911 542 0
-912 -545 0
912 545 0
-913 -548 0
913 548 0
-914 -550 0
914 550 0
-915 -553 0
915 553 0
-916 -556 0
916 556 0
-917 -559 0
917 559 0
-918 -562 0
918 562 0
-919 -565 0
919 565 0
-920 -568 0
920 568 0
-921 -571 0
921 571 0
-922 -574 0
922 574 0
-923 -577 0
923 577 0
-924 -580 0
924 580 0
-925 -583 0
925 583 0
-926 -586 0
926 586 0
-927 -589 0
927 589 0
-928 -46 0
928 46 0
-929 -592 0
929 592 0
-930 -595 0
930 595 0
-931 -598 0
931 598 0
-932 -601 0
932 601 0
-933 -604 0
933 604 0
-934 -607 0
934 607 0
-935 -610 0
935 610 0
-936 -613 0
936 613 0
-937 -616 0
937 616 0
-938 -619 0
938 619 0
-939 -622 0
939 622 0
-940 -625 0
940 625 0
-941 -628 0
941 628 0
-942 -631 0
942 631 0
-943 -634 0
943 634 0
-944 -637 0
944 637 0
-945 -640 0
945 640 0
-946 -643 0
946 643 0
-947 -646 0
947 646 0
-948 -649 0
948 649 0
-949 -652 0
949 652 0
-950 -655 0
950 655 0
-951 -658 0
951 658 0
-952 -661 0
952 661 0
-953 -664 0
953 664 0
-954 -667 0
954 667 0
-955 -670 0
955 670 0
-956 -673 0
956 673 0
-957 -676 0
957 676 0
-958 -679 0
958 679 0
-959 -682 0
959 682 0
-960 -685 0
960 685 0
-961 -688 0
961 688 0
-962 -691 0
962 691 0
-963 -694 0
963 694 0
695 0
